<?xml version = "1.0" standalone="yes"?>
<!-- This file has been generated by DOcplex version 2.23.222  -->
<CPLEXSolution version="1.0">
 <header
   problemName="CVRP"
   objectiveValue="16626.5"
  />
 <variables>
  <variable name="x_0_4" index="3" value="1.00000"/>
  <variable name="x_0_5" index="4" value="1.00000"/>
  <variable name="x_0_6" index="5" value="1.00000"/>
  <variable name="x_0_7" index="6" value="1.00000"/>
  <variable name="x_0_8" index="7" value="1.00000"/>
  <variable name="x_0_10" index="9" value="1.00000"/>
  <variable name="x_0_14" index="13" value="1.00000"/>
  <variable name="x_0_15" index="14" value="1.00000"/>
  <variable name="x_0_16" index="15" value="1.00000"/>
  <variable name="x_0_17" index="16" value="1.00000"/>
  <variable name="x_0_19" index="18" value="1.00000"/>
  <variable name="x_0_20" index="19" value="1.00000"/>
  <variable name="x_0_21" index="20" value="1.00000"/>
  <variable name="x_0_23" index="22" value="1.00000"/>
  <variable name="x_0_24" index="23" value="1.00000"/>
  <variable name="x_0_25" index="24" value="1.00000"/>
  <variable name="x_0_26" index="25" value="1.00000"/>
  <variable name="x_1_0" index="26" value="1.00000"/>
  <variable name="x_2_0" index="52" value="1.00000"/>
  <variable name="x_3_0" index="78" value="1.00000"/>
  <variable name="x_4_11" index="114" value="1.00000"/>
  <variable name="x_5_0" index="130" value="1.00000"/>
  <variable name="x_6_0" index="156" value="1.00000"/>
  <variable name="x_7_0" index="182" value="1.00000"/>
  <variable name="x_8_0" index="208" value="1.00000"/>
  <variable name="x_9_0" index="234" value="1.00000"/>
  <variable name="x_10_0" index="260" value="1.00000"/>
  <variable name="x_11_0" index="286" value="1.00000"/>
  <variable name="x_12_0" index="312" value="1.00000"/>
  <variable name="x_13_0" index="338" value="1.00000"/>
  <variable name="x_14_0" index="364" value="1.00000"/>
  <variable name="x_15_0" index="390" value="1.00000"/>
  <variable name="x_16_0" index="416" value="1.00000"/>
  <variable name="x_17_18" index="459" value="1.00000"/>
  <variable name="x_18_13" index="481" value="1.00000"/>
  <variable name="x_19_0" index="494" value="1.00000"/>
  <variable name="x_20_12" index="532" value="1.00000"/>
  <variable name="x_21_9" index="555" value="1.00000"/>
  <variable name="x_22_2" index="574" value="1.00000"/>
  <variable name="x_23_1" index="599" value="1.00000"/>
  <variable name="x_24_22" index="646" value="1.00000"/>
  <variable name="x_25_3" index="653" value="1.00000"/>
  <variable name="x_26_0" index="676" value="1.00000"/>
  <variable name="u_1" index="702" value="21.00000"/>
  <variable name="u_2" index="703" value="21.00000"/>
  <variable name="u_3" index="704" value="21.00000"/>
  <variable name="u_4" index="705" value="7.00000"/>
  <variable name="u_5" index="706" value="19.00000"/>
  <variable name="u_6" index="707" value="17.00000"/>
  <variable name="u_7" index="708" value="16.00000"/>
  <variable name="u_8" index="709" value="21.00000"/>
  <variable name="u_9" index="710" value="21.00000"/>
  <variable name="u_10" index="711" value="17.00000"/>
  <variable name="u_11" index="712" value="21.00000"/>
  <variable name="u_12" index="713" value="21.00000"/>
  <variable name="u_13" index="714" value="21.00000"/>
  <variable name="u_14" index="715" value="20.00000"/>
  <variable name="u_15" index="716" value="11.00000"/>
  <variable name="u_16" index="717" value="20.00000"/>
  <variable name="u_17" index="718" value="8.00000"/>
  <variable name="u_18" index="719" value="13.00000"/>
  <variable name="u_19" index="720" value="18.00000"/>
  <variable name="u_20" index="721" value="13.00000"/>
  <variable name="u_21" index="722" value="16.00000"/>
  <variable name="u_22" index="723" value="10.00000"/>
  <variable name="u_23" index="724" value="7.00000"/>
  <variable name="u_24" index="725" value="8.00000"/>
  <variable name="u_25" index="726" value="6.00000"/>
  <variable name="u_26" index="727" value="14.00000"/>
 </variables>
</CPLEXSolution>
